HUN,8,6,297
3,24,5,24,2,21,0,27,4,23,1,27
0,27,4,21,2,30,1,26,5,27,3,30
2,25,5,29,3,28,0,30,1,27,4,26
4,23,0,28,2,28,1,23,5,24,3,25
2,22,3,26,4,26,0,27,1,21,5,25
5,30,2,30,1,28,0,27,4,24,3,21
0,28,4,26,3,21,1,26,2,29,5,28
5,28,3,21,2,26,0,21,1,22,4,24
